data;

set UnknownValues := x y z w v;
set Equations := Eq1 Eq2 Eq3 Eq4 Eq5;

param Rhs :=
	Eq1	-5
	Eq2	-5
	Eq3	1.5
	Eq4	0
	Eq5	-0.5
	;

param Coef :=
	Eq1	x	4
	Eq1	y	-2
	Eq1	z	3
	Eq1	w	0
	Eq1	v	0
	Eq2	x	0
	Eq2	y	0
	Eq2	z	-1
	Eq2	w	-1
	Eq2	v	0
	Eq3	x	0
	Eq3	y	1
	Eq3	z	1
	Eq3	w	0
	Eq3	v	0
	Eq4	x	4
	Eq4	y	-7
	Eq4	z	0
	Eq4	w	2
	Eq4	v	5
	Eq5	x	1
	Eq5	y	0
	Eq5	z	2
	Eq5	w	0
	Eq5	v	3
	;

# Solution: 2, 3.5, -2, 7, 0.5

end;
